p cnf 100 140
-4 32 12 0
-25 9 -26 0
-34 -83 -33 0
-89 50 43 0
70 -81 -94 0
-11 -18 25 0
26 -22 -98 0
-6 -14 -77 0
-83 -50 40 0
-68 -82 -43 0
85 92 14 0
79 95 43 0
-54 -48 29 0
-49 89 -48 0
-16 55 27 0
46 -68 -58 0
-86 93 -21 0
3 -90 38 0
-36 -71 -5 0
-97 -10 -35 0
67 91 41 0
68 90 -51 0
-80 -45 -31 0
-70 86 30 0
-57 51 -43 0
-100 98 -66 0
81 -49 -73 0
-17 -8 3 0
24 36 -49 0
71 41 -78 0
96 58 35 0
3 93 -8 0
88 51 80 0
84 43 73 0
8 -10 -66 0
-36 42 1 0
-30 42 82 0
78 66 26 0
56 92 -81 0
-88 -70 64 0
-99 90 -45 0
31 -53 -68 0
-24 30 92 0
-28 17 -36 0
66 73 49 0
-87 -74 51 0
-32 -59 -36 0
57 75 -55 0
42 -62 -44 0
-94 -28 72 0
41 -94 -93 0
66 48 54 0
-49 45 -54 0
-9 -75 80 0
8 50 -5 0
-95 70 -35 0
-43 47 -13 0
97 74 39 0
85 -1 -11 0
-41 99 62 0
9 74 40 0
48 49 -65 0
-32 38 -11 0
-34 -4 21 0
77 -36 -12 0
-82 75 15 0
-50 54 -15 0
-31 87 91 0
-74 -85 84 0
-4 19 -44 0
-2 93 -3 0
-18 -13 -3 0
-89 11 -7 0
33 -25 -47 0
-78 -37 -43 0
4 5 -24 0
-48 72 14 0
10 50 92 0
-91 -65 5 0
6 -67 65 0
-6 -49 90 0
85 32 -37 0
-19 -78 -1 0
-64 16 -66 0
-32 3 -38 0
-72 30 17 0
-3 -8 -74 0
-90 2 -30 0
-73 -64 46 0
94 96 18 0
-93 31 37 0
57 8 -63 0
19 -88 21 0
-93 46 97 0
18 93 99 0
46 44 79 0
65 3 7 0
2 -40 -41 0
32 57 -61 0
23 72 -24 0
x 3 -4 5 -7 -8 10 11 -15 -16 -17 18 -19 20 22 23 -24 -25 -27 29 -30 -31 32 33 -34 38 -40 43 -44 46 47 51 -52 -54 55 58 -59 -61 -64 -65 -66 -68 69 70 71 74 -75 -77 -79 -81 84 -85 -88 -89 -91 -94 95 -97 -99 0
x -2 3 7 -9 10 11 -12 13 15 16 -17 -18 -20 -21 22 -25 26 -29 32 -34 35 36 39 40 41 -43 -44 45 -49 -51 -53 -59 -60 61 -63 -64 66 67 68 -70 71 -72 75 -76 77 78 -79 80 82 83 -85 -87 -88 90 -94 96 98 -100 0
x -4 5 -6 -7 -12 -14 -15 -16 -19 -21 23 24 25 27 -28 29 -34 -35 -36 37 40 -44 46 -47 48 -49 50 51 54 55 58 60 -61 -62 63 65 69 73 -74 -76 77 -78 79 -84 -87 -88 -90 94 -96 99 100 0
x 3 -6 -7 -10 -12 14 15 16 17 -20 22 24 29 33 34 35 -36 -37 -39 40 -41 -43 45 46 48 49 51 -53 54 58 59 -60 -63 -65 -73 -76 -82 87 -88 -89 -90 95 96 0
x -3 -5 9 -11 -12 13 -14 -16 17 -18 -19 23 24 25 27 32 35 -36 37 -38 -39 -41 43 44 45 47 -50 -51 52 56 -58 -60 67 70 -71 74 -76 -79 -81 83 -85 -86 88 89 -90 93 -94 -95 98 0
x 2 -7 10 -12 13 -14 -15 17 18 19 20 -21 22 -24 25 26 -27 -28 30 -31 -33 -34 36 38 39 -41 -42 -43 -45 47 59 61 63 -64 -65 66 -67 68 -71 -73 -75 -76 -77 78 81 -82 -84 85 91 93 -96 -97 -100 0
x 1 3 5 7 -10 11 12 14 15 20 -23 -26 27 28 33 -34 36 37 -38 -47 50 51 -52 -53 54 -55 -56 -58 -63 -64 65 66 67 -70 -71 -72 -74 -76 -77 78 79 82 83 85 86 -87 88 89 -92 93 -94 96 97 99 0
x 1 3 -7 8 -9 -11 12 13 -17 -18 -19 21 -22 -23 -30 -32 -33 37 -40 42 43 46 -49 -50 51 54 55 61 63 -65 66 -67 -70 72 -73 74 75 79 80 -81 82 -84 -85 86 -87 -90 -95 97 -99 -100 0
x 2 5 6 -7 -10 12 -14 17 18 -21 22 -24 25 26 28 30 31 -34 38 -41 42 43 44 -46 -47 -49 -50 -52 -54 -55 59 -61 -62 63 -64 65 66 -69 72 74 77 -80 83 85 89 90 93 -94 -96 -97 -99 0
x -2 -4 5 6 8 -11 13 -14 15 16 18 -20 21 22 -23 -24 25 27 -30 -34 36 37 39 -40 43 44 -45 -46 -47 48 49 50 51 -52 -53 -61 63 -64 65 -68 -72 74 -76 79 80 -81 -83 89 -90 91 -92 94 -96 -99 0
x -2 -3 4 -9 11 12 13 -15 -32 34 35 -36 37 39 -41 42 44 46 47 51 53 54 56 -58 -59 60 61 63 64 -65 71 -73 74 76 -85 -88 89 -91 93 97 99 100 0
x -2 -3 8 -9 10 11 15 -20 22 -24 -26 -27 -28 -29 30 -31 -38 39 -41 -42 -43 47 48 49 -50 52 -54 -55 59 61 -63 67 -70 -71 76 -77 78 79 81 -82 -86 87 90 91 -92 -94 95 96 98 0
x -2 -3 5 9 -10 -11 -12 -13 -15 -18 19 -20 21 -23 -25 28 30 31 32 -33 34 -36 -40 42 43 44 45 47 -49 -51 -53 62 -65 67 68 69 -71 -73 78 79 -81 83 86 -87 -88 -89 91 -92 93 94 96 97 -98 0
x 1 -2 -4 -8 -9 -11 -12 -13 14 -16 -17 -20 -21 -23 -25 -26 27 -29 32 -35 36 38 40 -43 46 -48 50 -51 55 59 -62 63 -64 -67 -69 70 74 -77 -80 -85 -88 -89 -90 92 -97 0
x 2 -4 9 10 11 -13 -17 -18 19 21 -22 -24 26 -28 30 -31 32 -34 -36 -43 44 46 48 51 -55 -56 58 60 -61 62 65 -67 69 72 -76 -77 78 -83 84 -86 -88 -91 94 -95 -96 -98 0
x -2 -4 6 8 -11 13 14 -16 -18 -21 -22 24 26 -28 -30 37 -38 -40 42 44 45 -48 51 52 -53 55 -59 -60 62 -63 64 -65 -68 -71 72 74 76 -79 -80 81 83 85 87 88 -90 -91 93 -95 99 100 0
x 1 -2 3 6 7 14 17 18 -20 -21 24 25 26 28 -30 31 -32 33 34 36 -38 39 -40 -43 -45 -46 47 -48 -49 -50 52 53 -54 -55 -57 58 60 -64 -65 66 -67 68 -69 71 75 -76 77 -78 -84 -87 89 90 -92 94 -98 -99 0
x -2 -3 4 -5 6 -7 9 12 15 -17 -22 -23 -26 28 29 31 36 -37 -38 39 -40 -42 -44 -46 -47 51 -52 54 -55 56 57 -58 66 69 71 72 -77 -80 82 83 86 87 -90 91 -92 96 97 100 0
x -1 -4 15 18 -19 23 -24 26 30 31 -32 -33 -35 36 37 39 41 44 46 48 -49 50 -51 -52 54 55 -58 -63 64 65 67 -68 -69 71 73 -74 75 76 78 81 -82 -85 87 -88 -90 -91 92 93 -95 -97 -100 0
x 3 4 -7 -8 9 10 -11 12 -13 -15 16 -18 -19 -20 22 -24 26 28 -30 32 -35 40 41 42 44 -45 -46 -47 48 50 52 -54 56 58 59 60 -63 -64 -71 -73 -74 75 -76 -77 81 -86 87 -88 89 -90 -93 95 96 -98 -100 0
x 2 4 -6 7 -8 9 13 18 -20 22 -23 -27 -30 -35 -38 -39 40 43 -46 48 53 -54 57 -61 65 66 67 70 72 -73 -74 76 -77 -79 80 81 82 -85 -86 88 -90 93 96 -97 98 99 -100 0
x 2 -3 6 -7 8 9 13 17 -18 19 -20 23 26 -29 31 -36 37 38 -39 -41 43 -47 52 54 55 56 60 61 -62 65 -69 74 75 -77 -79 81 82 84 -87 89 91 94 -97 -98 0
x -3 4 5 -7 -8 11 12 -13 14 17 18 20 -24 26 28 29 30 31 -32 33 -34 -35 -37 41 -42 44 -45 -46 50 53 57 -58 -59 -60 -63 -64 -67 -69 -70 -74 76 78 -81 84 85 86 -87 88 -89 -90 -91 93 96 -98 99 0
x 4 -5 6 8 -9 14 -17 -18 19 -20 23 24 -25 -26 27 32 34 -36 37 40 43 -44 50 -53 54 56 58 -61 63 65 66 -67 74 78 80 -82 -83 -84 -88 89 -94 95 96 -99 0
x -1 -2 3 -4 -6 -7 -8 12 17 19 25 26 27 -29 -30 -31 -34 35 37 38 41 -44 45 47 -48 49 50 -55 56 -57 -58 -60 -61 62 -66 -70 71 -72 -73 76 -79 82 -85 -86 91 95 0
x -3 -9 10 -11 13 -14 -18 20 22 24 -28 29 30 35 -36 39 40 44 -45 -47 49 -54 -55 56 -59 -65 -66 67 -68 69 72 -73 -75 76 -77 -78 -80 83 88 -89 90 92 94 -97 98 0
x -6 7 9 -10 16 -17 -19 -20 21 -22 27 -28 29 31 -34 37 -38 41 43 49 -50 53 -54 -58 59 60 61 62 63 64 -65 -67 -68 -69 -73 79 -80 -81 -82 -83 91 92 -93 -94 95 -97 98 -100 0
x 3 -4 5 -8 13 -14 -16 -17 -18 21 22 -27 29 32 -33 34 38 -43 44 -45 46 -47 48 -49 52 53 54 -56 -58 64 66 70 -71 73 76 -80 87 91 96 97 98 0
x -2 3 -4 -9 -10 -12 -13 14 -18 19 21 -22 -26 27 28 30 -31 32 33 -36 -37 38 -41 42 43 44 50 51 -53 54 55 -58 61 -63 64 -66 68 -69 -70 71 -75 79 81 82 -83 84 85 88 -89 -95 96 97 -98 100 0
x -1 -2 -3 -10 -12 13 -14 -17 19 20 22 -23 24 25 27 -28 -29 30 33 -34 35 40 42 -43 47 -49 50 51 52 -53 -54 -56 57 58 60 62 67 71 72 73 75 -76 -78 80 -83 85 90 -94 96 -97 -99 -100 0
x 1 -4 -6 -7 8 9 10 -13 16 -17 -18 -20 21 22 24 -25 -26 -28 -30 33 -36 -38 -39 41 43 -47 -48 -49 -50 53 -55 -57 60 -61 -67 70 71 -72 -73 74 -75 76 78 -79 -80 81 -85 -90 91 93 94 -98 100 0
x -2 3 -4 -5 6 7 -8 -9 10 -12 -14 -15 18 20 21 25 -26 -29 32 -33 -38 -39 41 45 46 47 -48 50 52 -53 -54 55 57 58 -60 63 65 67 -70 -71 -72 -74 77 79 80 81 83 -84 85 88 89 90 -93 95 -96 -98 99 -100 0
x 8 -9 10 12 -16 -17 -18 19 -20 22 27 -34 -35 -36 -37 -38 39 -41 -42 45 -47 -48 -52 53 -54 -57 -58 -59 62 64 -66 -70 71 -75 -77 78 -79 80 81 85 87 -90 -92 -93 -96 -97 98 99 0
x 7 8 -9 -11 14 -16 -17 18 -20 -21 -27 -28 29 30 -31 32 33 34 -38 -40 41 -47 -55 -58 60 -61 -64 -68 73 -77 -78 79 81 -83 84 89 90 -91 94 -96 -100 0
x 2 3 11 -14 -16 18 -22 23 25 32 34 36 37 38 -40 41 -42 -43 -44 46 -47 -54 -57 -59 -61 -62 -63 -64 67 -70 71 -73 77 78 -80 82 -83 -84 86 -88 90 -91 93 -94 -95 -97 0
x -5 -7 -9 10 14 15 -16 17 18 19 20 21 26 27 28 29 30 -34 -38 -42 44 45 -47 -48 -49 52 60 61 63 64 -65 66 -67 69 70 71 74 75 77 -80 -83 -87 -88 -92 93 -94 95 -97 99 0
x -1 2 -3 -4 -6 7 11 12 -13 15 -16 -17 22 -23 25 26 27 29 -31 33 35 36 37 39 43 -46 -56 -58 -61 -62 65 66 -67 -69 -71 72 -77 -78 -79 80 -81 -85 -87 90 94 -97 98 99 0
x -3 -4 -5 6 -7 -8 -9 -11 16 -19 -20 21 -22 25 26 -28 -29 38 39 -42 -43 -45 -47 -48 -49 -50 -51 52 55 -57 -58 -60 -63 65 -68 -69 -77 -78 -81 -84 -88 89 91 -92 -96 -98 -99 0
x -1 5 6 9 11 -12 16 18 -19 -20 21 -22 -23 24 27 -28 -30 -31 -37 39 -41 -44 -45 -48 -49 -51 -52 -54 57 58 -59 -63 66 -67 -72 -75 -77 -78 79 81 -83 86 87 88 89 90 91 94 -97 99 0
x -5 -8 9 -12 13 -14 -15 -21 22 23 24 -25 -26 -27 28 29 -31 -36 37 -38 -41 -42 44 -45 50 52 53 -58 60 61 -64 -66 -70 -71 -72 73 74 75 -76 -78 82 87 91 93 94 95 98 100 0
